
Gurobi 11.0.1 (win64) logging started Thu May 16 19:29:22 2024

Set parameter LogFile to value "output/solver_log29.txt"
Gurobi Optimizer version 11.0.1 build v11.0.1rc0 (win64 - Windows 11.0 (22631.2))

CPU model: 11th Gen Intel(R) Core(TM) i7-1165G7 @ 2.80GHz, instruction set [SSE2|AVX|AVX2|AVX512]
Thread count: 4 physical cores, 8 logical processors, using up to 8 threads

Optimize a model with 4902 rows, 1253 columns and 90127 nonzeros
Model fingerprint: 0x229e264d
Variable types: 568 continuous, 685 integer (685 binary)
Coefficient statistics:
  Matrix range     [4e-01, 1e+05]
  Objective range  [1e+00, 1e+02]
  Bounds range     [1e+00, 1e+00]
  RHS range        [1e-02, 1e+05]

User MIP start produced solution with objective 95699.1 (0.01s)
User MIP start produced solution with objective 95699.1 (0.01s)
Loaded user MIP start with objective 95699.1

Presolve removed 653 rows and 355 columns
Presolve time: 0.11s
Presolved: 4249 rows, 898 columns, 80598 nonzeros
Variable types: 521 continuous, 377 integer (375 binary)

Root relaxation: objective 9.602879e+04, 1192 iterations, 0.06 seconds (0.13 work units)

    Nodes    |    Current Node    |     Objective Bounds      |     Work
 Expl Unexpl |  Obj  Depth IntInf | Incumbent    BestBd   Gap | It/Node Time

     0     0 96028.7858    0    2 95699.1159 96028.7858  0.34%     -    0s
     0     0 95858.7268    0    3 95699.1159 95858.7268  0.17%     -    0s
     0     0 95858.7201    0    3 95699.1159 95858.7201  0.17%     -    0s
     0     0 95858.7201    0    1 95699.1159 95858.7201  0.17%     -    0s
     0     0 95858.5472    0    1 95699.1159 95858.5472  0.17%     -    0s
     0     2 95858.5472    0    1 95699.1159 95858.5472  0.17%     -    0s
*  111    48              13    95782.283680 95787.1462  0.01%  22.9    1s

Explored 121 nodes (6338 simplex iterations) in 1.32 seconds (2.00 work units)
Thread count was 8 (of 8 available processors)

Solution count 3: 95782.3 95782.3 95699.1 

Optimal solution found (tolerance 1.00e-04)
Best objective 9.578228367981e+04, best bound 9.578714622412e+04, gap 0.0051%
